14 16
44 33
14 39
3 45
16 40
46 27
37 10
42 15
18 19
38 7
31 46
46 9
17 5
6 8
15 26
35 29
22 40
5 22
49 3
43 8
22 16
46 31
46 22
23 14
11 2
34 40
48 32
21 31
10 8
32 47
0 44
48 48
37 38
40 43
45 21
27 29
42 23
40 29
11 45
49 25
29 24
24 38
27 35
8 23
27 25
35 18
47 39
46 34
38 3
30 37
